
Gurobi 8.1.1 (mac64, Python) logging started Fri Jul 26 15:39:42 2019

Academic license - for non-commercial use only
Parameter updatemode unchanged
   Value: 1  Min: 0  Max: 1  Default: 1

Gurobi 8.1.1 (mac64, Python) logging started Fri Jul 26 15:59:06 2019

Academic license - for non-commercial use only
Parameter updatemode unchanged
   Value: 1  Min: 0  Max: 1  Default: 1

Gurobi 8.1.1 (mac64, Python) logging started Fri Jul 26 15:59:44 2019

Academic license - for non-commercial use only
Parameter updatemode unchanged
   Value: 1  Min: 0  Max: 1  Default: 1

Gurobi 8.1.1 (mac64, Python) logging started Fri Jul 26 16:01:29 2019

Academic license - for non-commercial use only
Parameter updatemode unchanged
   Value: 1  Min: 0  Max: 1  Default: 1

Gurobi 8.1.1 (mac64, Python) logging started Fri Jul 26 16:01:52 2019

Academic license - for non-commercial use only
Parameter updatemode unchanged
   Value: 1  Min: 0  Max: 1  Default: 1

Gurobi 8.1.1 (mac64, Python) logging started Fri Jul 26 16:02:44 2019

Academic license - for non-commercial use only
Parameter updatemode unchanged
   Value: 1  Min: 0  Max: 1  Default: 1

Gurobi 8.1.1 (mac64, Python) logging started Fri Jul 26 16:06:49 2019

Academic license - for non-commercial use only
Optimize a model with 1 rows, 3 columns and 3 nonzeros
Model has 2 quadratic constraints
Coefficient statistics:
  Matrix range     [1e+00, 1e+00]
  QMatrix range    [1e+00, 1e+00]
  Objective range  [1e+00, 1e+00]
  Bounds range     [0e+00, 0e+00]
  RHS range        [1e+00, 1e+00]
Presolve time: 0.00s
Presolved: 6 rows, 6 columns, 13 nonzeros
Presolved model has 2 second-order cone constraints
Ordering time: 0.00s

Barrier statistics:
 AA' NZ     : 1.500e+01
 Factor NZ  : 2.100e+01
 Factor Ops : 9.100e+01 (less than 1 second per iteration)
 Threads    : 1

                  Objective                Residual
Iter       Primal          Dual         Primal    Dual     Compl     Time
   0   2.38095238e-01  2.38095238e-01  8.33e-17 4.33e-01  9.23e-02     0s
   1   3.20481543e-01  3.62123302e-01  2.78e-17 1.39e-02  7.95e-03     0s
   2   3.26649101e-01  3.28651430e-01  2.02e-14 5.44e-04  3.46e-04     0s
   3   3.26797051e-01  3.27019441e-01  2.56e-13 5.98e-10  2.78e-05     0s
   4   3.26990986e-01  3.26994814e-01  4.81e-13 3.46e-13  4.78e-07     0s
   5   3.26992304e-01  3.26992876e-01  9.02e-11 3.31e-14  7.15e-08     0s

Barrier solved model in 5 iterations and 0.01 seconds
Optimal objective 3.26992304e-01


Gurobi 8.1.1 (mac64, Python) logging started Fri Jul 26 16:09:28 2019

Academic license - for non-commercial use only

Gurobi 8.1.1 (mac64, Python) logging started Fri Jul 26 16:09:56 2019

Academic license - for non-commercial use only
Parameter updatemode unchanged
   Value: 1  Min: 0  Max: 1  Default: 1

Gurobi 8.1.1 (mac64, Python) logging started Fri Jul 26 16:10:53 2019

Academic license - for non-commercial use only

Gurobi 8.1.1 (mac64, Python) logging started Fri Jul 26 16:15:33 2019

Academic license - for non-commercial use only

Gurobi 8.1.1 (mac64, Python) logging started Fri Jul 26 16:15:53 2019

Academic license - for non-commercial use only
Optimize a model with 1 rows, 3 columns and 2 nonzeros
Variable types: 0 continuous, 3 integer (3 binary)
Coefficient statistics:
  Matrix range     [1e+00, 1e+00]
  Objective range  [1e+00, 1e+00]
  Bounds range     [1e+00, 1e+00]
  RHS range        [0e+00, 0e+00]
Found heuristic solution: objective -0.0000000
Found heuristic solution: objective 1.0000000

Explored 0 nodes (0 simplex iterations) in 0.00 seconds
Thread count was 1 (of 8 available processors)

Solution count 2: 1 -0 

Optimal solution found (tolerance 1.00e-04)
Best objective 1.000000000000e+00, best bound 1.000000000000e+00, gap 0.0000%

Gurobi 8.1.1 (mac64, Python) logging started Fri Jul 26 16:17:45 2019

Academic license - for non-commercial use only
Optimize a model with 1 rows, 3 columns and 2 nonzeros
Variable types: 0 continuous, 3 integer (3 binary)
Coefficient statistics:
  Matrix range     [1e+00, 1e+00]
  Objective range  [1e+00, 1e+00]
  Bounds range     [1e+00, 1e+00]
  RHS range        [0e+00, 0e+00]
Found heuristic solution: objective -0.0000000
Found heuristic solution: objective 1.0000000

Explored 0 nodes (0 simplex iterations) in 0.00 seconds
Thread count was 1 (of 8 available processors)

Solution count 2: 1 -0 

Optimal solution found (tolerance 1.00e-04)
Best objective 1.000000000000e+00, best bound 1.000000000000e+00, gap 0.0000%

Gurobi 8.1.1 (mac64, Python) logging started Fri Jul 26 16:17:58 2019

Academic license - for non-commercial use only
Optimize a model with 1 rows, 3 columns and 2 nonzeros
Variable types: 0 continuous, 3 integer (3 binary)
Coefficient statistics:
  Matrix range     [1e+00, 1e+00]
  Objective range  [1e+00, 1e+00]
  Bounds range     [1e+00, 1e+00]
  RHS range        [0e+00, 0e+00]
Found heuristic solution: objective -0.0000000
Found heuristic solution: objective 1.0000000

Explored 0 nodes (0 simplex iterations) in 0.00 seconds
Thread count was 1 (of 8 available processors)

Solution count 2: 1 -0 

Optimal solution found (tolerance 1.00e-04)
Best objective 1.000000000000e+00, best bound 1.000000000000e+00, gap 0.0000%

Gurobi 8.1.1 (mac64, Python) logging started Fri Jul 26 16:18:24 2019

Academic license - for non-commercial use only
Optimize a model with 1 rows, 3 columns and 2 nonzeros
Variable types: 0 continuous, 3 integer (3 binary)
Coefficient statistics:
  Matrix range     [1e+00, 1e+00]
  Objective range  [1e+00, 1e+00]
  Bounds range     [1e+00, 1e+00]
  RHS range        [0e+00, 0e+00]
Found heuristic solution: objective -0.0000000
Found heuristic solution: objective 1.0000000

Explored 0 nodes (0 simplex iterations) in 0.00 seconds
Thread count was 1 (of 8 available processors)

Solution count 2: 1 -0 

Optimal solution found (tolerance 1.00e-04)
Best objective 1.000000000000e+00, best bound 1.000000000000e+00, gap 0.0000%

Gurobi 8.1.1 (mac64, Python) logging started Fri Jul 26 16:20:10 2019

Academic license - for non-commercial use only

Gurobi 8.1.1 (mac64, Python) logging started Fri Jul 26 16:22:08 2019

Academic license - for non-commercial use only
Optimize a model with 0 rows, 3 columns and 0 nonzeros
Model has 1 general constraint
Variable types: 0 continuous, 3 integer (3 binary)
Coefficient statistics:
  Matrix range     [0e+00, 0e+00]
  Objective range  [1e+00, 1e+00]
  Bounds range     [1e+00, 1e+00]
  RHS range        [0e+00, 0e+00]
Found heuristic solution: objective -0.0000000
Found heuristic solution: objective 1.0000000

Explored 0 nodes (0 simplex iterations) in 0.00 seconds
Thread count was 1 (of 8 available processors)

Solution count 2: 1 -0 

Optimal solution found (tolerance 1.00e-04)
Best objective 1.000000000000e+00, best bound 1.000000000000e+00, gap 0.0000%

Gurobi 8.1.1 (mac64, Python) logging started Fri Jul 26 16:22:26 2019

Academic license - for non-commercial use only

Gurobi 8.1.1 (mac64, Python) logging started Fri Jul 26 16:23:03 2019

Academic license - for non-commercial use only

Gurobi 8.1.1 (mac64, Python) logging started Fri Jul 26 16:23:13 2019

Academic license - for non-commercial use only
Optimize a model with 0 rows, 3 columns and 0 nonzeros
Model has 1 general constraint
Variable types: 0 continuous, 3 integer (3 binary)
Coefficient statistics:
  Matrix range     [0e+00, 0e+00]
  Objective range  [1e+00, 1e+00]
  Bounds range     [1e+00, 1e+00]
  RHS range        [0e+00, 0e+00]
Found heuristic solution: objective -0.0000000
Found heuristic solution: objective 1.0000000

Explored 0 nodes (0 simplex iterations) in 0.00 seconds
Thread count was 1 (of 8 available processors)

Solution count 2: 1 -0 

Optimal solution found (tolerance 1.00e-04)
Best objective 1.000000000000e+00, best bound 1.000000000000e+00, gap 0.0000%

Gurobi 8.1.1 (mac64, Python) logging started Fri Jul 26 16:24:07 2019

Academic license - for non-commercial use only
Optimize a model with 1 rows, 3 columns and 2 nonzeros
Variable types: 0 continuous, 3 integer (3 binary)
Coefficient statistics:
  Matrix range     [1e+00, 1e+00]
  Objective range  [1e+00, 1e+00]
  Bounds range     [1e+00, 1e+00]
  RHS range        [1e+00, 1e+00]
Found heuristic solution: objective -0.0000000
Presolve removed 1 rows and 3 columns
Presolve time: 0.00s
Presolve: All rows and columns removed

Explored 0 nodes (0 simplex iterations) in 0.00 seconds
Thread count was 1 (of 8 available processors)

Solution count 2: 1 -0 

Optimal solution found (tolerance 1.00e-04)
Best objective 1.000000000000e+00, best bound 1.000000000000e+00, gap 0.0000%

Gurobi 8.1.1 (mac64, Python) logging started Fri Jul 26 16:25:22 2019

Academic license - for non-commercial use only
Optimize a model with 2 rows, 5 columns and 4 nonzeros
Model has 1 general constraint
Variable types: 0 continuous, 5 integer (5 binary)
Coefficient statistics:
  Matrix range     [1e+00, 1e+00]
  Objective range  [1e+00, 1e+00]
  Bounds range     [1e+00, 1e+00]
  RHS range        [1e+00, 1e+00]
Presolve removed 2 rows and 5 columns
Presolve time: 0.00s
Presolve: All rows and columns removed

Explored 0 nodes (0 simplex iterations) in 0.00 seconds
Thread count was 1 (of 8 available processors)

Solution count 1: 1 

Optimal solution found (tolerance 1.00e-04)
Best objective 1.000000000000e+00, best bound 1.000000000000e+00, gap 0.0000%

Gurobi 8.1.1 (mac64, Python) logging started Fri Jul 26 16:25:56 2019

Academic license - for non-commercial use only

Gurobi 8.1.1 (mac64, Python) logging started Fri Jul 26 16:34:41 2019

Academic license - for non-commercial use only
Parameter updatemode unchanged
   Value: 1  Min: 0  Max: 1  Default: 1

Gurobi 8.1.1 (mac64, Python) logging started Fri Jul 26 16:35:22 2019

Academic license - for non-commercial use only
Parameter updatemode unchanged
   Value: 1  Min: 0  Max: 1  Default: 1

Gurobi 8.1.1 (mac64, Python) logging started Fri Jul 26 16:36:10 2019

Academic license - for non-commercial use only
Optimize a model with 2 rows, 5 columns and 4 nonzeros
Model has 1 general constraint
Variable types: 0 continuous, 5 integer (5 binary)
Coefficient statistics:
  Matrix range     [1e+00, 1e+00]
  Objective range  [1e+00, 1e+00]
  Bounds range     [1e+00, 1e+00]
  RHS range        [1e+00, 1e+00]
Presolve removed 2 rows and 5 columns
Presolve time: 0.00s
Presolve: All rows and columns removed

Explored 0 nodes (0 simplex iterations) in 0.00 seconds
Thread count was 1 (of 8 available processors)

Solution count 1: 1 

Optimal solution found (tolerance 1.00e-04)
Best objective 1.000000000000e+00, best bound 1.000000000000e+00, gap 0.0000%

Gurobi 8.1.1 (mac64, Python) logging started Fri Jul 26 16:37:38 2019

Academic license - for non-commercial use only
Optimize a model with 3 rows, 6 columns and 6 nonzeros
Model has 1 general constraint
Variable types: 0 continuous, 6 integer (6 binary)
Coefficient statistics:
  Matrix range     [1e+00, 1e+00]
  Objective range  [1e+00, 1e+00]
  Bounds range     [1e+00, 1e+00]
  RHS range        [1e+00, 1e+00]
Presolve removed 3 rows and 6 columns
Presolve time: 0.00s
Presolve: All rows and columns removed

Explored 0 nodes (0 simplex iterations) in 0.00 seconds
Thread count was 1 (of 8 available processors)

Solution count 1: 1 

Optimal solution found (tolerance 1.00e-04)
Best objective 1.000000000000e+00, best bound 1.000000000000e+00, gap 0.0000%

Gurobi 8.1.1 (mac64, Python) logging started Fri Jul 26 16:38:13 2019

Academic license - for non-commercial use only
Optimize a model with 3 rows, 7 columns and 6 nonzeros
Model has 2 general constraints
Variable types: 0 continuous, 7 integer (7 binary)
Coefficient statistics:
  Matrix range     [1e+00, 1e+00]
  Objective range  [1e+00, 1e+00]
  Bounds range     [1e+00, 1e+00]
  RHS range        [1e+00, 1e+00]
Presolve removed 3 rows and 7 columns
Presolve time: 0.00s
Presolve: All rows and columns removed

Explored 0 nodes (0 simplex iterations) in 0.00 seconds
Thread count was 1 (of 8 available processors)

Solution count 1: 1 

Optimal solution found (tolerance 1.00e-04)
Best objective 1.000000000000e+00, best bound 1.000000000000e+00, gap 0.0000%

Gurobi 8.1.1 (mac64, Python) logging started Fri Jul 26 16:38:33 2019

Academic license - for non-commercial use only
Optimize a model with 3 rows, 7 columns and 6 nonzeros
Model has 2 general constraints
Variable types: 0 continuous, 7 integer (7 binary)
Coefficient statistics:
  Matrix range     [1e+00, 1e+00]
  Objective range  [1e+00, 1e+00]
  Bounds range     [1e+00, 1e+00]
  RHS range        [1e+00, 1e+00]
Presolve removed 3 rows and 7 columns
Presolve time: 0.00s
Presolve: All rows and columns removed

Explored 0 nodes (0 simplex iterations) in 0.00 seconds
Thread count was 1 (of 8 available processors)

Solution count 1: 1 

Optimal solution found (tolerance 1.00e-04)
Best objective 1.000000000000e+00, best bound 1.000000000000e+00, gap 0.0000%

Gurobi 8.1.1 (mac64, Python) logging started Fri Jul 26 16:38:59 2019

Academic license - for non-commercial use only
Optimize a model with 2 rows, 7 columns and 4 nonzeros
Model has 3 general constraints
Variable types: 0 continuous, 7 integer (7 binary)
Coefficient statistics:
  Matrix range     [1e+00, 1e+00]
  Objective range  [1e+00, 1e+00]
  Bounds range     [1e+00, 1e+00]
  RHS range        [1e+00, 1e+00]
Presolve added 5 rows and 0 columns
Presolve removed 0 rows and 2 columns
Presolve time: 0.00s
Presolved: 7 rows, 5 columns, 17 nonzeros
Variable types: 0 continuous, 5 integer (5 binary)
Found heuristic solution: objective -0.0000000
Found heuristic solution: objective 1.0000000

Explored 0 nodes (0 simplex iterations) in 0.00 seconds
Thread count was 8 (of 8 available processors)

Solution count 2: 1 -0 

Optimal solution found (tolerance 1.00e-04)
Best objective 1.000000000000e+00, best bound 1.000000000000e+00, gap 0.0000%

Gurobi 8.1.1 (mac64, Python) logging started Fri Jul 26 16:39:06 2019

Academic license - for non-commercial use only
Optimize a model with 2 rows, 7 columns and 4 nonzeros
Model has 3 general constraints
Variable types: 0 continuous, 7 integer (7 binary)
Coefficient statistics:
  Matrix range     [1e+00, 1e+00]
  Objective range  [1e+00, 1e+00]
  Bounds range     [1e+00, 1e+00]
  RHS range        [1e+00, 1e+00]
Presolve added 5 rows and 0 columns
Presolve removed 0 rows and 2 columns
Presolve time: 0.00s
Presolved: 7 rows, 5 columns, 17 nonzeros
Variable types: 0 continuous, 5 integer (5 binary)
Found heuristic solution: objective -0.0000000
Found heuristic solution: objective 1.0000000

Explored 0 nodes (0 simplex iterations) in 0.00 seconds
Thread count was 8 (of 8 available processors)

Solution count 2: 1 -0 

Optimal solution found (tolerance 1.00e-04)
Best objective 1.000000000000e+00, best bound 1.000000000000e+00, gap 0.0000%

Gurobi 8.1.1 (mac64, Python) logging started Fri Jul 26 16:39:08 2019

Academic license - for non-commercial use only
Optimize a model with 2 rows, 7 columns and 4 nonzeros
Model has 3 general constraints
Variable types: 0 continuous, 7 integer (7 binary)
Coefficient statistics:
  Matrix range     [1e+00, 1e+00]
  Objective range  [1e+00, 1e+00]
  Bounds range     [1e+00, 1e+00]
  RHS range        [1e+00, 1e+00]
Presolve added 5 rows and 0 columns
Presolve removed 0 rows and 2 columns
Presolve time: 0.00s
Presolved: 7 rows, 5 columns, 17 nonzeros
Variable types: 0 continuous, 5 integer (5 binary)
Found heuristic solution: objective -0.0000000
Found heuristic solution: objective 1.0000000

Explored 0 nodes (0 simplex iterations) in 0.00 seconds
Thread count was 8 (of 8 available processors)

Solution count 2: 1 -0 

Optimal solution found (tolerance 1.00e-04)
Best objective 1.000000000000e+00, best bound 1.000000000000e+00, gap 0.0000%

Gurobi 8.1.1 (mac64, Python) logging started Fri Jul 26 16:39:09 2019

Academic license - for non-commercial use only
Optimize a model with 2 rows, 7 columns and 4 nonzeros
Model has 3 general constraints
Variable types: 0 continuous, 7 integer (7 binary)
Coefficient statistics:
  Matrix range     [1e+00, 1e+00]
  Objective range  [1e+00, 1e+00]
  Bounds range     [1e+00, 1e+00]
  RHS range        [1e+00, 1e+00]
Presolve added 5 rows and 0 columns
Presolve removed 0 rows and 2 columns
Presolve time: 0.00s
Presolved: 7 rows, 5 columns, 17 nonzeros
Variable types: 0 continuous, 5 integer (5 binary)
Found heuristic solution: objective -0.0000000
Found heuristic solution: objective 1.0000000

Explored 0 nodes (0 simplex iterations) in 0.00 seconds
Thread count was 8 (of 8 available processors)

Solution count 2: 1 -0 

Optimal solution found (tolerance 1.00e-04)
Best objective 1.000000000000e+00, best bound 1.000000000000e+00, gap 0.0000%

Gurobi 8.1.1 (mac64, Python) logging started Fri Jul 26 16:40:11 2019

Academic license - for non-commercial use only
Parameter updatemode unchanged
   Value: 1  Min: 0  Max: 1  Default: 1

Gurobi 8.1.1 (mac64, Python) logging started Fri Jul 26 16:40:44 2019

Academic license - for non-commercial use only
Parameter updatemode unchanged
   Value: 1  Min: 0  Max: 1  Default: 1

Gurobi 8.1.1 (mac64, Python) logging started Fri Jul 26 16:41:07 2019

Academic license - for non-commercial use only
Parameter updatemode unchanged
   Value: 1  Min: 0  Max: 1  Default: 1

Gurobi 8.1.1 (mac64, Python) logging started Fri Jul 26 17:05:40 2019

Academic license - for non-commercial use only
Parameter updatemode unchanged
   Value: 1  Min: 0  Max: 1  Default: 1

Gurobi 8.1.1 (mac64, Python) logging started Fri Jul 26 17:27:59 2019

Academic license - for non-commercial use only
Parameter updatemode unchanged
   Value: 1  Min: 0  Max: 1  Default: 1

Gurobi 8.1.1 (mac64, Python) logging started Fri Jul 26 17:28:24 2019

Academic license - for non-commercial use only
Parameter updatemode unchanged
   Value: 1  Min: 0  Max: 1  Default: 1

Gurobi 8.1.1 (mac64, Python) logging started Fri Jul 26 17:32:19 2019

Academic license - for non-commercial use only
Parameter updatemode unchanged
   Value: 1  Min: 0  Max: 1  Default: 1

Gurobi 8.1.1 (mac64, Python) logging started Fri Jul 26 17:35:32 2019

Academic license - for non-commercial use only
Parameter updatemode unchanged
   Value: 1  Min: 0  Max: 1  Default: 1

Gurobi 8.1.1 (mac64, Python) logging started Fri Jul 26 17:52:55 2019

Academic license - for non-commercial use only
Parameter updatemode unchanged
   Value: 1  Min: 0  Max: 1  Default: 1

Gurobi 8.1.1 (mac64, Python) logging started Fri Jul 26 17:53:29 2019

Academic license - for non-commercial use only
Parameter updatemode unchanged
   Value: 1  Min: 0  Max: 1  Default: 1

Gurobi 8.1.1 (mac64, Python) logging started Fri Jul 26 17:54:38 2019

Academic license - for non-commercial use only
Parameter updatemode unchanged
   Value: 1  Min: 0  Max: 1  Default: 1

Gurobi 8.1.1 (mac64, Python) logging started Fri Jul 26 17:57:08 2019

Academic license - for non-commercial use only
Parameter updatemode unchanged
   Value: 1  Min: 0  Max: 1  Default: 1

Gurobi 8.1.1 (mac64, Python) logging started Fri Jul 26 18:04:27 2019

Academic license - for non-commercial use only
Parameter updatemode unchanged
   Value: 1  Min: 0  Max: 1  Default: 1

Gurobi 8.1.1 (mac64, Python) logging started Fri Jul 26 18:05:06 2019

Academic license - for non-commercial use only
Parameter updatemode unchanged
   Value: 1  Min: 0  Max: 1  Default: 1

Gurobi 8.1.1 (mac64, Python) logging started Fri Jul 26 21:26:21 2019

Academic license - for non-commercial use only
Parameter updatemode unchanged
   Value: 1  Min: 0  Max: 1  Default: 1

Gurobi 8.1.1 (mac64, Python) logging started Fri Jul 26 21:29:59 2019

Academic license - for non-commercial use only
Parameter updatemode unchanged
   Value: 1  Min: 0  Max: 1  Default: 1

Gurobi 8.1.1 (mac64, Python) logging started Fri Jul 26 21:30:40 2019

Academic license - for non-commercial use only
Parameter updatemode unchanged
   Value: 1  Min: 0  Max: 1  Default: 1

Gurobi 8.1.1 (mac64, Python) logging started Fri Jul 26 21:31:33 2019

Academic license - for non-commercial use only
Parameter updatemode unchanged
   Value: 1  Min: 0  Max: 1  Default: 1

Gurobi 8.1.1 (mac64, Python) logging started Fri Jul 26 21:32:03 2019

Academic license - for non-commercial use only
Parameter updatemode unchanged
   Value: 1  Min: 0  Max: 1  Default: 1

Gurobi 8.1.1 (mac64, Python) logging started Fri Jul 26 21:32:29 2019

Academic license - for non-commercial use only
Parameter updatemode unchanged
   Value: 1  Min: 0  Max: 1  Default: 1

Gurobi 8.1.1 (mac64, Python) logging started Fri Jul 26 21:33:03 2019

Academic license - for non-commercial use only
Parameter updatemode unchanged
   Value: 1  Min: 0  Max: 1  Default: 1

Gurobi 8.1.1 (mac64, Python) logging started Fri Jul 26 21:40:27 2019

Academic license - for non-commercial use only
Parameter updatemode unchanged
   Value: 1  Min: 0  Max: 1  Default: 1

Gurobi 8.1.1 (mac64, Python) logging started Fri Jul 26 21:41:03 2019

Academic license - for non-commercial use only
Parameter updatemode unchanged
   Value: 1  Min: 0  Max: 1  Default: 1

Gurobi 8.1.1 (mac64, Python) logging started Fri Jul 26 21:43:39 2019

Academic license - for non-commercial use only
Parameter updatemode unchanged
   Value: 1  Min: 0  Max: 1  Default: 1
